(set-logic QF_BV)
(declare-fun clock_1 () (_ BitVec 1))
(declare-fun clock_2 () (_ BitVec 1))
(declare-fun clock_3 () (_ BitVec 1))
(declare-fun reset_1 () (_ BitVec 1))
(declare-fun reset_2 () (_ BitVec 1))
(declare-fun reset_3 () (_ BitVec 1))
(declare-fun stato_2 () (_ BitVec 4))
(declare-fun x_out_1 () (_ BitVec 8))
(declare-fun x_out_0 () (_ BitVec 8))
(define-fun $e1 () (_ BitVec 8) (_ bv0 8))
(define-fun $e2 () (_ BitVec 4) (_ bv0 4))
(define-fun $e3 () (_ BitVec 1) (ite (= clock_1 clock_2) #b1 #b0))
(define-fun $e4 () (_ BitVec 1) (ite (= reset_1 reset_2) #b1 #b0))
(define-fun $e5 () (_ BitVec 1) (bvand $e3 $e4))
(define-fun $e6 () (_ BitVec 1) (ite (= x_out_0 $e1) #b1 #b0))
(define-fun $e7 () (_ BitVec 1) (bvand clock_1 (bvnot $e3)))
(define-fun $e8 () (_ BitVec 1) (ite (= clock_2 clock_3) #b1 #b0))
(define-fun $e9 () (_ BitVec 1) (ite (= reset_2 reset_3) #b1 #b0))
(define-fun $e10 () (_ BitVec 1) (bvand $e8 $e9))
(define-fun $e11 () (_ BitVec 1) (bvand clock_2 (bvnot $e8)))
(define-fun $e12 () (_ BitVec 1) (ite (= stato_2 $e2) #b1 #b0))
(define-fun $e13 () (_ BitVec 1) (bvand (bvnot $e11) $e12))
(define-fun $e14 () (_ BitVec 1) (bvand (bvnot reset_2) (bvnot $e13)))
(define-fun $e15 () (_ BitVec 1) (bvand $e10 (bvnot $e12)))
(define-fun $e16 () (_ BitVec 1) (bvand (bvnot $e10) $e14))
(define-fun $e17 () (_ BitVec 1) (bvand (bvnot $e15) (bvnot $e16)))
(define-fun $e18 () (_ BitVec 1) (ite (= x_out_1 x_out_0) #b1 #b0))
(define-fun $e19 () (_ BitVec 1) (bvand (bvnot $e6) $e17))
(define-fun $e20 () (_ BitVec 1) (bvand (bvnot $e17) (bvnot $e18)))
(define-fun $e21 () (_ BitVec 1) (bvand (bvnot $e19) (bvnot $e20)))
(define-fun $e22 () (_ BitVec 1) (bvand $e7 (bvnot $e21)))
(define-fun $e23 () (_ BitVec 1) (bvand (bvnot $e7) (bvnot $e18)))
(define-fun $e24 () (_ BitVec 1) (bvand (bvnot $e22) (bvnot $e23)))
(define-fun $e25 () (_ BitVec 1) (bvand reset_1 (bvnot $e6)))
(define-fun $e26 () (_ BitVec 1) (bvand (bvnot reset_1) (bvnot $e24)))
(define-fun $e27 () (_ BitVec 1) (bvand $e5 (bvnot $e18)))
(define-fun $e28 () (_ BitVec 1) (bvand (bvnot $e5) $e25))
(assert (not (= (bvnot $e27) #b0)))
(assert (not (= (bvnot $e28) #b0)))
(assert (not (= (bvnot $e26) #b0)))
(check-sat)
(exit)
